# SCIP version 3.0.2.1

# flag to indicate whether detector <arrowheur> is enabled
# [type: bool, range: {TRUE,FALSE}, default: TRUE]
detection/detectors/arrowheur/enabled = FALSE

# flag to indicate whether detector <isomorph> is enabled
# [type: bool, range: {TRUE,FALSE}, default: TRUE]
detection/detectors/isomorph/enabled = TRUE
